# Solution for model MIP-moo-LAMOSCAD
# Objective value = 1.1491280828904494e+03
cover[o74,s13] 1
cover[o74,s14] 0
cover[o74,s15] 0
cover[o74,s16] 0
cover[o74,s17] 0
cover[o74,s19] 0
cover[o98,s13] 1
cover[o98,s15] 0
cover[o98,s16] 0
cover[o98,s17] 0
cover[o98,s18] 0
cover[o53,s7] 0
cover[o53,s8] 0
cover[o53,s10] 0
cover[o53,s11] 1
cover[o178,s2] 1
cover[o203,s18] 0
cover[o203,s19] 1
cover[o203,s20] 0
cover[o127,s12] 0
cover[o127,s13] 1
cover[o127,s14] 0
cover[o127,s15] 0
cover[o127,s16] 0
cover[o127,s17] 0
cover[o172,s2] 1
cover[o172,s3] 0
cover[o51,s12] 0
cover[o51,s13] 1
cover[o51,s14] 0
cover[o51,s15] 0
cover[o51,s16] 0
cover[o7,s15] 0
cover[o7,s16] 0
cover[o7,s18] 0
cover[o7,s19] 1
cover[o7,s20] 0
cover[o30,s1] 1
cover[o221,s1] 1
cover[o64,s7] 0
cover[o64,s8] 0
cover[o64,s10] 0
cover[o64,s11] 1
cover[o64,s14] 0
cover[o25,s1] 1
cover[o94,s18] 0
cover[o94,s19] 1
cover[o94,s20] 0
cover[o119,s9] 0
cover[o119,s12] 0
cover[o119,s13] 1
cover[o148,s3] 1
cover[o148,s4] 0
cover[o148,s5] 0
cover[o148,s6] 0
cover[o148,s7] 0
cover[o208,s3] 1
cover[o208,s4] 0
cover[o208,s5] 0
cover[o86,s18] 0
cover[o86,s19] 1
cover[o86,s20] 0
cover[o93,s18] 0
cover[o93,s19] 1
cover[o93,s20] 0
cover[o108,s9] 0
cover[o108,s12] 0
cover[o108,s13] 1
cover[o131,s6] 0
cover[o131,s7] 0
cover[o131,s8] 0
cover[o131,s9] 0
cover[o131,s10] 0
cover[o131,s11] 1
cover[o131,s12] 0
cover[o6,s18] 0
cover[o6,s19] 1
cover[o6,s20] 0
cover[o10,s15] 0
cover[o10,s16] 0
cover[o10,s18] 0
cover[o10,s19] 1
cover[o10,s20] 0
cover[o41,s2] 1
cover[o41,s3] 0
cover[o144,s3] 1
cover[o144,s4] 0
cover[o144,s6] 0
cover[o144,s7] 0
cover[o169,s1] 0
cover[o169,s2] 1
cover[o185,s1] 1
cover[o87,s19] 1
cover[o87,s20] 0
cover[o168,s2] 1
cover[o168,s3] 0
cover[o24,s1] 1
cover[o24,s2] 0
cover[o190,s7] 0
cover[o190,s8] 0
cover[o190,s10] 0
cover[o190,s11] 1
cover[o190,s14] 0
cover[o97,s12] 0
cover[o97,s13] 1
cover[o97,s15] 0
cover[o97,s16] 0
cover[o97,s17] 0
cover[o162,s2] 1
cover[o162,s3] 0
cover[o162,s4] 0
cover[o162,s5] 0
cover[o106,s13] 1
cover[o106,s15] 0
cover[o106,s16] 0
cover[o106,s17] 0
cover[o106,s18] 0
cover[o157,s2] 0
cover[o157,s3] 1
cover[o157,s4] 0
cover[o157,s5] 0
cover[o157,s6] 0
cover[o175,s2] 1
cover[o136,s6] 0
cover[o136,s7] 0
cover[o136,s8] 0
cover[o136,s9] 0
cover[o136,s10] 0
cover[o136,s11] 1
cover[o136,s12] 0
cover[o145,s3] 1
cover[o145,s4] 0
cover[o145,s6] 0
cover[o145,s7] 0
cover[o3,s7] 0
cover[o3,s8] 0
cover[o3,s10] 0
cover[o3,s11] 1
cover[o28,s1] 1
cover[o45,s8] 0
cover[o45,s10] 0
cover[o45,s11] 1
cover[o45,s14] 0
cover[o27,s1] 1
cover[o219,s1] 1
cover[o9,s12] 0
cover[o9,s13] 1
cover[o9,s15] 0
cover[o9,s16] 0
cover[o212,s3] 1
cover[o212,s4] 0
cover[o212,s5] 0
cover[o212,s7] 0
cover[o139,s6] 0
cover[o139,s7] 0
cover[o139,s8] 0
cover[o139,s9] 0
cover[o139,s10] 0
cover[o139,s11] 1
cover[o139,s12] 0
cover[o214,s3] 1
cover[o214,s4] 0
cover[o214,s5] 0
cover[o214,s6] 0
cover[o214,s7] 0
cover[o113,s12] 0
cover[o113,s13] 1
cover[o160,s2] 0
cover[o160,s3] 1
cover[o160,s4] 0
cover[o160,s5] 0
cover[o191,s7] 0
cover[o191,s8] 0
cover[o191,s10] 0
cover[o191,s11] 1
cover[o191,s14] 0
cover[o104,s12] 0
cover[o104,s13] 1
cover[o104,s15] 0
cover[o104,s16] 0
cover[o184,s1] 1
cover[o37,s1] 0
cover[o37,s2] 1
cover[o165,s2] 1
cover[o83,s16] 0
cover[o83,s17] 0
cover[o83,s18] 0
cover[o83,s19] 1
cover[o83,s20] 0
cover[o114,s12] 0
cover[o114,s13] 1
cover[o155,s2] 0
cover[o155,s3] 1
cover[o155,s4] 0
cover[o155,s5] 0
cover[o155,s6] 0
cover[o91,s18] 0
cover[o91,s19] 1
cover[o91,s20] 0
cover[o138,s6] 0
cover[o138,s7] 0
cover[o138,s8] 0
cover[o138,s9] 0
cover[o138,s10] 0
cover[o138,s11] 1
cover[o183,s1] 1
cover[o11,s12] 0
cover[o11,s13] 1
cover[o11,s14] 0
cover[o11,s15] 0
cover[o11,s16] 0
cover[o181,s1] 1
cover[o159,s2] 1
cover[o159,s3] 0
cover[o159,s4] 0
cover[o159,s5] 0
cover[o48,s12] 0
cover[o48,s13] 1
cover[o48,s14] 0
cover[o129,s12] 0
cover[o129,s13] 1
cover[o129,s14] 0
cover[o129,s15] 0
cover[o129,s16] 0
cover[o129,s17] 0
cover[o158,s2] 1
cover[o158,s3] 0
cover[o158,s4] 0
cover[o158,s5] 0
cover[o117,s9] 0
cover[o117,s12] 0
cover[o117,s13] 1
cover[o153,s2] 0
cover[o153,s3] 1
cover[o153,s4] 0
cover[o153,s5] 0
cover[o153,s6] 0
cover[o101,s12] 0
cover[o101,s13] 1
cover[o101,s14] 0
cover[o44,s14] 0
cover[o44,s15] 0
cover[o44,s16] 0
cover[o44,s17] 0
cover[o44,s18] 0
cover[o44,s19] 1
cover[o109,s13] 1
cover[o109,s15] 0
cover[o109,s16] 0
cover[o109,s18] 0
cover[o59,s7] 0
cover[o59,s8] 0
cover[o59,s10] 0
cover[o59,s11] 1
cover[o59,s14] 0
cover[o121,s9] 0
cover[o121,s12] 0
cover[o121,s13] 1
cover[o13,s6] 0
cover[o13,s7] 0
cover[o13,s8] 0
cover[o13,s9] 0
cover[o13,s10] 0
cover[o13,s11] 1
cover[o13,s12] 0
cover[o128,s12] 0
cover[o128,s13] 1
cover[o128,s14] 0
cover[o128,s15] 0
cover[o128,s16] 0
cover[o128,s17] 0
cover[o90,s19] 1
cover[o90,s20] 0
cover[o79,s14] 0
cover[o79,s15] 0
cover[o79,s16] 0
cover[o79,s17] 0
cover[o79,s18] 0
cover[o79,s19] 1
cover[o161,s2] 0
cover[o161,s3] 1
cover[o161,s4] 0
cover[o161,s5] 0
cover[o163,s2] 0
cover[o163,s3] 1
cover[o163,s4] 0
cover[o163,s5] 0
cover[o130,s6] 0
cover[o130,s7] 0
cover[o130,s8] 0
cover[o130,s9] 0
cover[o130,s10] 0
cover[o130,s11] 1
cover[o130,s12] 0
cover[o107,s12] 0
cover[o107,s13] 1
cover[o107,s14] 0
cover[o107,s15] 0
cover[o42,s2] 1
cover[o19,s3] 1
cover[o19,s6] 0
cover[o19,s7] 0
cover[o22,s1] 1
cover[o187,s1] 1
cover[o84,s15] 0
cover[o84,s16] 0
cover[o84,s17] 0
cover[o84,s18] 0
cover[o84,s19] 1
cover[o84,s20] 0
cover[o132,s6] 0
cover[o132,s7] 0
cover[o132,s8] 0
cover[o132,s9] 0
cover[o132,s10] 0
cover[o132,s11] 1
cover[o132,s12] 0
cover[o198,s1] 1
cover[o49,s13] 1
cover[o49,s15] 0
cover[o49,s16] 0
cover[o49,s17] 0
cover[o49,s18] 0
cover[o116,s12] 0
cover[o116,s13] 1
cover[o124,s9] 0
cover[o124,s12] 0
cover[o124,s13] 1
cover[o134,s6] 0
cover[o134,s7] 0
cover[o134,s8] 0
cover[o134,s9] 0
cover[o134,s10] 0
cover[o134,s11] 1
cover[o134,s12] 0
cover[o82,s16] 0
cover[o82,s17] 0
cover[o82,s18] 0
cover[o82,s19] 1
cover[o82,s20] 0
cover[o220,s1] 1
cover[o207,s3] 1
cover[o207,s4] 0
cover[o207,s5] 0
cover[o43,s2] 1
cover[o43,s3] 0
cover[o192,s1] 1
cover[o174,s2] 1
cover[o174,s3] 0
cover[o78,s14] 0
cover[o78,s15] 0
cover[o78,s16] 0
cover[o78,s17] 0
cover[o78,s19] 1
select[s14] 0
select[s17] 0
select[s7] 0
select[s4] 0
select[s6] 0
select[s5] 0
select[s18] 0
select[s20] 0
select[s16] 0
select[s1] 1
select[s11] 1
select[s10] 0
select[s19] 1
select[s12] 0
select[s15] 0
select[s3] 1
select[s8] 0
select[s9] 0
select[s2] 1
select[s13] 1
deploy[o74,s13,m] 20
deploy[o74,s13,c] 0
deploy[o74,s13,i] 0
deploy[o74,s14,m] 0
deploy[o74,s14,c] 0
deploy[o74,s14,i] 0
deploy[o74,s15,m] 0
deploy[o74,s15,c] 0
deploy[o74,s15,i] 0
deploy[o74,s16,m] 0
deploy[o74,s16,c] 0
deploy[o74,s16,i] 0
deploy[o74,s17,m] 0
deploy[o74,s17,c] 0
deploy[o74,s17,i] 0
deploy[o74,s19,m] 0
deploy[o74,s19,c] 0
deploy[o74,s19,i] 0
deploy[o98,s13,m] 0
deploy[o98,s13,c] 31
deploy[o98,s13,i] 0
deploy[o98,s15,m] 0
deploy[o98,s15,c] 0
deploy[o98,s15,i] 0
deploy[o98,s16,m] 0
deploy[o98,s16,c] 0
deploy[o98,s16,i] 0
deploy[o98,s17,m] 0
deploy[o98,s17,c] 0
deploy[o98,s17,i] 0
deploy[o98,s18,m] 0
deploy[o98,s18,c] 0
deploy[o98,s18,i] 0
deploy[o53,s7,m] 0
deploy[o53,s7,c] 0
deploy[o53,s7,i] 0
deploy[o53,s8,m] 0
deploy[o53,s8,c] 0
deploy[o53,s8,i] 0
deploy[o53,s10,m] 0
deploy[o53,s10,c] 0
deploy[o53,s10,i] 0
deploy[o53,s11,m] 0
deploy[o53,s11,c] 0
deploy[o53,s11,i] 157
deploy[o178,s2,m] 0
deploy[o178,s2,c] 0
deploy[o178,s2,i] 157
deploy[o203,s18,m] 0
deploy[o203,s18,c] 0
deploy[o203,s18,i] 0
deploy[o203,s19,m] 0
deploy[o203,s19,c] 5
deploy[o203,s19,i] 0
deploy[o203,s20,m] 0
deploy[o203,s20,c] 0
deploy[o203,s20,i] 0
deploy[o127,s12,m] 0
deploy[o127,s12,c] 0
deploy[o127,s12,i] 0
deploy[o127,s13,m] 0
deploy[o127,s13,c] 0
deploy[o127,s13,i] 7
deploy[o127,s14,m] 0
deploy[o127,s14,c] 0
deploy[o127,s14,i] 0
deploy[o127,s15,m] 0
deploy[o127,s15,c] 0
deploy[o127,s15,i] 0
deploy[o127,s16,m] 0
deploy[o127,s16,c] 0
deploy[o127,s16,i] 0
deploy[o127,s17,m] 0
deploy[o127,s17,c] 0
deploy[o127,s17,i] 0
deploy[o172,s2,m] 2
deploy[o172,s2,c] 0
deploy[o172,s2,i] 0
deploy[o172,s3,m] 2
deploy[o172,s3,c] 0
deploy[o172,s3,i] 0
deploy[o51,s12,m] 0
deploy[o51,s12,c] 0
deploy[o51,s12,i] 0
deploy[o51,s13,m] 0
deploy[o51,s13,c] 31
deploy[o51,s13,i] 0
deploy[o51,s14,m] 0
deploy[o51,s14,c] 0
deploy[o51,s14,i] 0
deploy[o51,s15,m] 0
deploy[o51,s15,c] 0
deploy[o51,s15,i] 0
deploy[o51,s16,m] 0
deploy[o51,s16,c] 0
deploy[o51,s16,i] 0
deploy[o7,s15,m] 0
deploy[o7,s15,c] 0
deploy[o7,s15,i] 0
deploy[o7,s16,m] 0
deploy[o7,s16,c] 0
deploy[o7,s16,i] 0
deploy[o7,s18,m] 0
deploy[o7,s18,c] 0
deploy[o7,s18,i] 0
deploy[o7,s19,m] 0
deploy[o7,s19,c] 0
deploy[o7,s19,i] 37
deploy[o7,s20,m] 0
deploy[o7,s20,c] 0
deploy[o7,s20,i] 0
deploy[o30,s1,m] 100
deploy[o30,s1,c] 0
deploy[o30,s1,i] 0
deploy[o221,s1,m] 0
deploy[o221,s1,c] 110
deploy[o221,s1,i] 0
deploy[o64,s7,m] 0
deploy[o64,s7,c] 0
deploy[o64,s7,i] 0
deploy[o64,s8,m] 0
deploy[o64,s8,c] 0
deploy[o64,s8,i] 0
deploy[o64,s10,m] 0
deploy[o64,s10,c] 0
deploy[o64,s10,i] 0
deploy[o64,s11,m] 0
deploy[o64,s11,c] 31
deploy[o64,s11,i] 0
deploy[o64,s14,m] 0
deploy[o64,s14,c] 0
deploy[o64,s14,i] 0
deploy[o25,s1,m] 20
deploy[o25,s1,c] 0
deploy[o25,s1,i] 0
deploy[o94,s18,m] 0
deploy[o94,s18,c] 0
deploy[o94,s18,i] 0
deploy[o94,s19,m] 0
deploy[o94,s19,c] 5
deploy[o94,s19,i] 0
deploy[o94,s20,m] 0
deploy[o94,s20,c] 0
deploy[o94,s20,i] 0
deploy[o119,s9,m] 0
deploy[o119,s9,c] 0
deploy[o119,s9,i] 0
deploy[o119,s12,m] 0
deploy[o119,s12,c] 0
deploy[o119,s12,i] 0
deploy[o119,s13,m] 0
deploy[o119,s13,c] 110
deploy[o119,s13,i] 0
deploy[o148,s3,m] 0
deploy[o148,s3,c] 5
deploy[o148,s3,i] 0
deploy[o148,s4,m] 0
deploy[o148,s4,c] 0
deploy[o148,s4,i] 0
deploy[o148,s5,m] 0
deploy[o148,s5,c] 0
deploy[o148,s5,i] 0
deploy[o148,s6,m] 0
deploy[o148,s6,c] 0
deploy[o148,s6,i] 0
deploy[o148,s7,m] 0
deploy[o148,s7,c] 0
deploy[o148,s7,i] 0
deploy[o208,s3,m] 0
deploy[o208,s3,c] 0
deploy[o208,s3,i] 157
deploy[o208,s4,m] 0
deploy[o208,s4,c] 0
deploy[o208,s4,i] 0
deploy[o208,s5,m] 0
deploy[o208,s5,c] 0
deploy[o208,s5,i] 0
deploy[o86,s18,m] 0
deploy[o86,s18,c] 0
deploy[o86,s18,i] 0
deploy[o86,s19,m] 0
deploy[o86,s19,c] 0
deploy[o86,s19,i] 0
deploy[o86,s20,m] 0
deploy[o86,s20,c] 0
deploy[o86,s20,i] 0
deploy[o93,s18,m] 0
deploy[o93,s18,c] 0
deploy[o93,s18,i] 0
deploy[o93,s19,m] 0
deploy[o93,s19,c] 0
deploy[o93,s19,i] 0
deploy[o93,s20,m] 0
deploy[o93,s20,c] 0
deploy[o93,s20,i] 0
deploy[o108,s9,m] 0
deploy[o108,s9,c] 0
deploy[o108,s9,i] 0
deploy[o108,s12,m] 0
deploy[o108,s12,c] 0
deploy[o108,s12,i] 0
deploy[o108,s13,m] 0
deploy[o108,s13,c] 31
deploy[o108,s13,i] 0
deploy[o131,s6,m] 0
deploy[o131,s6,c] 0
deploy[o131,s6,i] 0
deploy[o131,s7,m] 0
deploy[o131,s7,c] 0
deploy[o131,s7,i] 0
deploy[o131,s8,m] 0
deploy[o131,s8,c] 0
deploy[o131,s8,i] 0
deploy[o131,s9,m] 0
deploy[o131,s9,c] 0
deploy[o131,s9,i] 0
deploy[o131,s10,m] 0
deploy[o131,s10,c] 0
deploy[o131,s10,i] 0
deploy[o131,s11,m] 0
deploy[o131,s11,c] 0
deploy[o131,s11,i] 7
deploy[o131,s12,m] 0
deploy[o131,s12,c] 0
deploy[o131,s12,i] 0
deploy[o6,s18,m] 0
deploy[o6,s18,c] 0
deploy[o6,s18,i] 0
deploy[o6,s19,m] 0
deploy[o6,s19,c] 0
deploy[o6,s19,i] 0
deploy[o6,s20,m] 0
deploy[o6,s20,c] 0
deploy[o6,s20,i] 0
deploy[o10,s15,m] 0
deploy[o10,s15,c] 0
deploy[o10,s15,i] 0
deploy[o10,s16,m] 0
deploy[o10,s16,c] 0
deploy[o10,s16,i] 0
deploy[o10,s18,m] 0
deploy[o10,s18,c] 0
deploy[o10,s18,i] 0
deploy[o10,s19,m] 0
deploy[o10,s19,c] 110
deploy[o10,s19,i] 0
deploy[o10,s20,m] 0
deploy[o10,s20,c] 0
deploy[o10,s20,i] 0
deploy[o41,s2,m] 100
deploy[o41,s2,c] 0
deploy[o41,s2,i] 0
deploy[o41,s3,m] 100
deploy[o41,s3,c] 0
deploy[o41,s3,i] 0
deploy[o144,s3,m] 0
deploy[o144,s3,c] 0
deploy[o144,s3,i] 157
deploy[o144,s4,m] 0
deploy[o144,s4,c] 0
deploy[o144,s4,i] 0
deploy[o144,s6,m] 0
deploy[o144,s6,c] 0
deploy[o144,s6,i] 0
deploy[o144,s7,m] 0
deploy[o144,s7,c] 0
deploy[o144,s7,i] 0
deploy[o169,s1,m] 0
deploy[o169,s1,c] 31
deploy[o169,s1,i] 0
deploy[o169,s2,m] 0
deploy[o169,s2,c] 31
deploy[o169,s2,i] 0
deploy[o185,s1,m] 100
deploy[o185,s1,c] 0
deploy[o185,s1,i] 0
deploy[o87,s19,m] 0
deploy[o87,s19,c] 110
deploy[o87,s19,i] 0
deploy[o87,s20,m] 0
deploy[o87,s20,c] 0
deploy[o87,s20,i] 0
deploy[o168,s2,m] 0
deploy[o168,s2,c] 0
deploy[o168,s2,i] 37
deploy[o168,s3,m] 0
deploy[o168,s3,c] 0
deploy[o168,s3,i] 37
deploy[o24,s1,m] 0
deploy[o24,s1,c] 0
deploy[o24,s1,i] 7
deploy[o24,s2,m] 0
deploy[o24,s2,c] 0
deploy[o24,s2,i] 7
deploy[o190,s7,m] 0
deploy[o190,s7,c] 0
deploy[o190,s7,i] 0
deploy[o190,s8,m] 0
deploy[o190,s8,c] 0
deploy[o190,s8,i] 0
deploy[o190,s10,m] 0
deploy[o190,s10,c] 0
deploy[o190,s10,i] 0
deploy[o190,s11,m] 0
deploy[o190,s11,c] 0
deploy[o190,s11,i] 0
deploy[o190,s14,m] 0
deploy[o190,s14,c] 0
deploy[o190,s14,i] 0
deploy[o97,s12,m] 0
deploy[o97,s12,c] 0
deploy[o97,s12,i] 0
deploy[o97,s13,m] 0
deploy[o97,s13,c] 0
deploy[o97,s13,i] 7
deploy[o97,s15,m] 0
deploy[o97,s15,c] 0
deploy[o97,s15,i] 0
deploy[o97,s16,m] 0
deploy[o97,s16,c] 0
deploy[o97,s16,i] 0
deploy[o97,s17,m] 0
deploy[o97,s17,c] 0
deploy[o97,s17,i] 0
deploy[o162,s2,m] 0
deploy[o162,s2,c] 0
deploy[o162,s2,i] 7
deploy[o162,s3,m] 0
deploy[o162,s3,c] 0
deploy[o162,s3,i] 7
deploy[o162,s4,m] 0
deploy[o162,s4,c] 0
deploy[o162,s4,i] 0
deploy[o162,s5,m] 0
deploy[o162,s5,c] 0
deploy[o162,s5,i] 0
deploy[o106,s13,m] 2
deploy[o106,s13,c] 0
deploy[o106,s13,i] 0
deploy[o106,s15,m] 0
deploy[o106,s15,c] 0
deploy[o106,s15,i] 0
deploy[o106,s16,m] 0
deploy[o106,s16,c] 0
deploy[o106,s16,i] 0
deploy[o106,s17,m] 0
deploy[o106,s17,c] 0
deploy[o106,s17,i] 0
deploy[o106,s18,m] 0
deploy[o106,s18,c] 0
deploy[o106,s18,i] 0
deploy[o157,s2,m] 0
deploy[o157,s2,c] 0
deploy[o157,s2,i] 7
deploy[o157,s3,m] 0
deploy[o157,s3,c] 0
deploy[o157,s3,i] 7
deploy[o157,s4,m] 0
deploy[o157,s4,c] 0
deploy[o157,s4,i] 0
deploy[o157,s5,m] 0
deploy[o157,s5,c] 0
deploy[o157,s5,i] 0
deploy[o157,s6,m] 0
deploy[o157,s6,c] 0
deploy[o157,s6,i] 0
deploy[o175,s2,m] 20
deploy[o175,s2,c] 0
deploy[o175,s2,i] 0
deploy[o136,s6,m] 0
deploy[o136,s6,c] 0
deploy[o136,s6,i] 0
deploy[o136,s7,m] 0
deploy[o136,s7,c] 0
deploy[o136,s7,i] 0
deploy[o136,s8,m] 0
deploy[o136,s8,c] 0
deploy[o136,s8,i] 0
deploy[o136,s9,m] 0
deploy[o136,s9,c] 0
deploy[o136,s9,i] 0
deploy[o136,s10,m] 0
deploy[o136,s10,c] 0
deploy[o136,s10,i] 0
deploy[o136,s11,m] 0
deploy[o136,s11,c] 110
deploy[o136,s11,i] 0
deploy[o136,s12,m] 0
deploy[o136,s12,c] 0
deploy[o136,s12,i] 0
deploy[o145,s3,m] 20
deploy[o145,s3,c] 0
deploy[o145,s3,i] 0
deploy[o145,s4,m] 0
deploy[o145,s4,c] 0
deploy[o145,s4,i] 0
deploy[o145,s6,m] 0
deploy[o145,s6,c] 0
deploy[o145,s6,i] 0
deploy[o145,s7,m] 0
deploy[o145,s7,c] 0
deploy[o145,s7,i] 0
deploy[o3,s7,m] 0
deploy[o3,s7,c] 0
deploy[o3,s7,i] 0
deploy[o3,s8,m] 0
deploy[o3,s8,c] 0
deploy[o3,s8,i] 0
deploy[o3,s10,m] 0
deploy[o3,s10,c] 0
deploy[o3,s10,i] 0
deploy[o3,s11,m] 0
deploy[o3,s11,c] 0
deploy[o3,s11,i] 0
deploy[o28,s1,m] 0
deploy[o28,s1,c] 31
deploy[o28,s1,i] 0
deploy[o45,s8,m] 0
deploy[o45,s8,c] 0
deploy[o45,s8,i] 0
deploy[o45,s10,m] 0
deploy[o45,s10,c] 0
deploy[o45,s10,i] 0
deploy[o45,s11,m] 0
deploy[o45,s11,c] 0
deploy[o45,s11,i] 37
deploy[o45,s14,m] 0
deploy[o45,s14,c] 0
deploy[o45,s14,i] 0
deploy[o27,s1,m] 0
deploy[o27,s1,c] 0
deploy[o27,s1,i] 37
deploy[o219,s1,m] 2
deploy[o219,s1,c] 0
deploy[o219,s1,i] 0
deploy[o9,s12,m] 0
deploy[o9,s12,c] 0
deploy[o9,s12,i] 0
deploy[o9,s13,m] 0
deploy[o9,s13,c] 0
deploy[o9,s13,i] 37
deploy[o9,s15,m] 0
deploy[o9,s15,c] 0
deploy[o9,s15,i] 0
deploy[o9,s16,m] 0
deploy[o9,s16,c] 0
deploy[o9,s16,i] 0
deploy[o212,s3,m] 2
deploy[o212,s3,c] 0
deploy[o212,s3,i] 0
deploy[o212,s4,m] 0
deploy[o212,s4,c] 0
deploy[o212,s4,i] 0
deploy[o212,s5,m] 0
deploy[o212,s5,c] 0
deploy[o212,s5,i] 0
deploy[o212,s7,m] 0
deploy[o212,s7,c] 0
deploy[o212,s7,i] 0
deploy[o139,s6,m] 0
deploy[o139,s6,c] 0
deploy[o139,s6,i] 0
deploy[o139,s7,m] 0
deploy[o139,s7,c] 0
deploy[o139,s7,i] 0
deploy[o139,s8,m] 0
deploy[o139,s8,c] 0
deploy[o139,s8,i] 0
deploy[o139,s9,m] 0
deploy[o139,s9,c] 0
deploy[o139,s9,i] 0
deploy[o139,s10,m] 0
deploy[o139,s10,c] 0
deploy[o139,s10,i] 0
deploy[o139,s11,m] 0
deploy[o139,s11,c] 0
deploy[o139,s11,i] 37
deploy[o139,s12,m] 0
deploy[o139,s12,c] 0
deploy[o139,s12,i] 0
deploy[o214,s3,m] 0
deploy[o214,s3,c] 0
deploy[o214,s3,i] 37
deploy[o214,s4,m] 0
deploy[o214,s4,c] 0
deploy[o214,s4,i] 0
deploy[o214,s5,m] 0
deploy[o214,s5,c] 0
deploy[o214,s5,i] 0
deploy[o214,s6,m] 0
deploy[o214,s6,c] 0
deploy[o214,s6,i] 0
deploy[o214,s7,m] 0
deploy[o214,s7,c] 0
deploy[o214,s7,i] 0
deploy[o113,s12,m] 0
deploy[o113,s12,c] 0
deploy[o113,s12,i] 0
deploy[o113,s13,m] 0
deploy[o113,s13,c] 5
deploy[o113,s13,i] 0
deploy[o160,s2,m] 20
deploy[o160,s2,c] 0
deploy[o160,s2,i] 0
deploy[o160,s3,m] 20
deploy[o160,s3,c] 0
deploy[o160,s3,i] 0
deploy[o160,s4,m] 0
deploy[o160,s4,c] 0
deploy[o160,s4,i] 0
deploy[o160,s5,m] 0
deploy[o160,s5,c] 0
deploy[o160,s5,i] 0
deploy[o191,s7,m] 0
deploy[o191,s7,c] 0
deploy[o191,s7,i] 0
deploy[o191,s8,m] 0
deploy[o191,s8,c] 0
deploy[o191,s8,i] 0
deploy[o191,s10,m] 0
deploy[o191,s10,c] 0
deploy[o191,s10,i] 0
deploy[o191,s11,m] 0
deploy[o191,s11,c] 31
deploy[o191,s11,i] 0
deploy[o191,s14,m] 0
deploy[o191,s14,c] 0
deploy[o191,s14,i] 0
deploy[o104,s12,m] 0
deploy[o104,s12,c] 0
deploy[o104,s12,i] 0
deploy[o104,s13,m] 0
deploy[o104,s13,c] 0
deploy[o104,s13,i] 7
deploy[o104,s15,m] 0
deploy[o104,s15,c] 0
deploy[o104,s15,i] 0
deploy[o104,s16,m] 0
deploy[o104,s16,c] 0
deploy[o104,s16,i] 0
deploy[o184,s1,m] 0
deploy[o184,s1,c] 31
deploy[o184,s1,i] 0
deploy[o37,s1,m] 2
deploy[o37,s1,c] 0
deploy[o37,s1,i] 0
deploy[o37,s2,m] 2
deploy[o37,s2,c] 0
deploy[o37,s2,i] 0
deploy[o165,s2,m] 0
deploy[o165,s2,c] 0
deploy[o165,s2,i] 7
deploy[o83,s16,m] 0
deploy[o83,s16,c] 0
deploy[o83,s16,i] 0
deploy[o83,s17,m] 0
deploy[o83,s17,c] 0
deploy[o83,s17,i] 0
deploy[o83,s18,m] 0
deploy[o83,s18,c] 0
deploy[o83,s18,i] 0
deploy[o83,s19,m] 0
deploy[o83,s19,c] 0
deploy[o83,s19,i] 0
deploy[o83,s20,m] 0
deploy[o83,s20,c] 0
deploy[o83,s20,i] 0
deploy[o114,s12,m] 0
deploy[o114,s12,c] 0
deploy[o114,s12,i] 0
deploy[o114,s13,m] 100
deploy[o114,s13,c] 0
deploy[o114,s13,i] 0
deploy[o155,s2,m] 0
deploy[o155,s2,c] 5
deploy[o155,s2,i] 0
deploy[o155,s3,m] 0
deploy[o155,s3,c] 5
deploy[o155,s3,i] 0
deploy[o155,s4,m] 0
deploy[o155,s4,c] 0
deploy[o155,s4,i] 0
deploy[o155,s5,m] 0
deploy[o155,s5,c] 0
deploy[o155,s5,i] 0
deploy[o155,s6,m] 0
deploy[o155,s6,c] 0
deploy[o155,s6,i] 0
deploy[o91,s18,m] 0
deploy[o91,s18,c] 0
deploy[o91,s18,i] 0
deploy[o91,s19,m] 0
deploy[o91,s19,c] 0
deploy[o91,s19,i] 0
deploy[o91,s20,m] 0
deploy[o91,s20,c] 0
deploy[o91,s20,i] 0
deploy[o138,s6,m] 0
deploy[o138,s6,c] 0
deploy[o138,s6,i] 0
deploy[o138,s7,m] 0
deploy[o138,s7,c] 0
deploy[o138,s7,i] 0
deploy[o138,s8,m] 0
deploy[o138,s8,c] 0
deploy[o138,s8,i] 0
deploy[o138,s9,m] 0
deploy[o138,s9,c] 0
deploy[o138,s9,i] 0
deploy[o138,s10,m] 0
deploy[o138,s10,c] 0
deploy[o138,s10,i] 0
deploy[o138,s11,m] 0
deploy[o138,s11,c] 110
deploy[o138,s11,i] 0
deploy[o183,s1,m] 0
deploy[o183,s1,c] 0
deploy[o183,s1,i] 7
deploy[o11,s12,m] 0
deploy[o11,s12,c] 0
deploy[o11,s12,i] 0
deploy[o11,s13,m] 0
deploy[o11,s13,c] 0
deploy[o11,s13,i] 157
deploy[o11,s14,m] 0
deploy[o11,s14,c] 0
deploy[o11,s14,i] 0
deploy[o11,s15,m] 0
deploy[o11,s15,c] 0
deploy[o11,s15,i] 0
deploy[o11,s16,m] 0
deploy[o11,s16,c] 0
deploy[o11,s16,i] 0
deploy[o181,s1,m] 0
deploy[o181,s1,c] 110
deploy[o181,s1,i] 0
deploy[o159,s2,m] 0
deploy[o159,s2,c] 31
deploy[o159,s2,i] 0
deploy[o159,s3,m] 0
deploy[o159,s3,c] 31
deploy[o159,s3,i] 0
deploy[o159,s4,m] 0
deploy[o159,s4,c] 0
deploy[o159,s4,i] 0
deploy[o159,s5,m] 0
deploy[o159,s5,c] 0
deploy[o159,s5,i] 0
deploy[o48,s12,m] 0
deploy[o48,s12,c] 0
deploy[o48,s12,i] 0
deploy[o48,s13,m] 0
deploy[o48,s13,c] 0
deploy[o48,s13,i] 7
deploy[o48,s14,m] 0
deploy[o48,s14,c] 0
deploy[o48,s14,i] 0
deploy[o129,s12,m] 0
deploy[o129,s12,c] 0
deploy[o129,s12,i] 0
deploy[o129,s13,m] 0
deploy[o129,s13,c] 110
deploy[o129,s13,i] 0
deploy[o129,s14,m] 0
deploy[o129,s14,c] 0
deploy[o129,s14,i] 0
deploy[o129,s15,m] 0
deploy[o129,s15,c] 0
deploy[o129,s15,i] 0
deploy[o129,s16,m] 0
deploy[o129,s16,c] 0
deploy[o129,s16,i] 0
deploy[o129,s17,m] 0
deploy[o129,s17,c] 0
deploy[o129,s17,i] 0
deploy[o158,s2,m] 100
deploy[o158,s2,c] 0
deploy[o158,s2,i] 0
deploy[o158,s3,m] 100
deploy[o158,s3,c] 0
deploy[o158,s3,i] 0
deploy[o158,s4,m] 0
deploy[o158,s4,c] 0
deploy[o158,s4,i] 0
deploy[o158,s5,m] 0
deploy[o158,s5,c] 0
deploy[o158,s5,i] 0
deploy[o117,s9,m] 0
deploy[o117,s9,c] 0
deploy[o117,s9,i] 0
deploy[o117,s12,m] 0
deploy[o117,s12,c] 0
deploy[o117,s12,i] 0
deploy[o117,s13,m] 0
deploy[o117,s13,c] 31
deploy[o117,s13,i] 0
deploy[o153,s2,m] 2
deploy[o153,s2,c] 0
deploy[o153,s2,i] 0
deploy[o153,s3,m] 2
deploy[o153,s3,c] 0
deploy[o153,s3,i] 0
deploy[o153,s4,m] 0
deploy[o153,s4,c] 0
deploy[o153,s4,i] 0
deploy[o153,s5,m] 0
deploy[o153,s5,c] 0
deploy[o153,s5,i] 0
deploy[o153,s6,m] 0
deploy[o153,s6,c] 0
deploy[o153,s6,i] 0
deploy[o101,s12,m] 0
deploy[o101,s12,c] 0
deploy[o101,s12,i] 0
deploy[o101,s13,m] 20
deploy[o101,s13,c] 0
deploy[o101,s13,i] 0
deploy[o101,s14,m] 0
deploy[o101,s14,c] 0
deploy[o101,s14,i] 0
deploy[o44,s14,m] 0
deploy[o44,s14,c] 0
deploy[o44,s14,i] 0
deploy[o44,s15,m] 0
deploy[o44,s15,c] 0
deploy[o44,s15,i] 0
deploy[o44,s16,m] 0
deploy[o44,s16,c] 0
deploy[o44,s16,i] 0
deploy[o44,s17,m] 0
deploy[o44,s17,c] 0
deploy[o44,s17,i] 0
deploy[o44,s18,m] 0
deploy[o44,s18,c] 0
deploy[o44,s18,i] 0
deploy[o44,s19,m] 0
deploy[o44,s19,c] 31
deploy[o44,s19,i] 0
deploy[o109,s13,m] 0
deploy[o109,s13,c] 5
deploy[o109,s13,i] 0
deploy[o109,s15,m] 0
deploy[o109,s15,c] 0
deploy[o109,s15,i] 0
deploy[o109,s16,m] 0
deploy[o109,s16,c] 0
deploy[o109,s16,i] 0
deploy[o109,s18,m] 0
deploy[o109,s18,c] 0
deploy[o109,s18,i] 0
deploy[o59,s7,m] 0
deploy[o59,s7,c] 0
deploy[o59,s7,i] 0
deploy[o59,s8,m] 0
deploy[o59,s8,c] 0
deploy[o59,s8,i] 0
deploy[o59,s10,m] 0
deploy[o59,s10,c] 0
deploy[o59,s10,i] 0
deploy[o59,s11,m] 0
deploy[o59,s11,c] 0
deploy[o59,s11,i] 0
deploy[o59,s14,m] 0
deploy[o59,s14,c] 0
deploy[o59,s14,i] 0
deploy[o121,s9,m] 0
deploy[o121,s9,c] 0
deploy[o121,s9,i] 0
deploy[o121,s12,m] 0
deploy[o121,s12,c] 0
deploy[o121,s12,i] 0
deploy[o121,s13,m] 0
deploy[o121,s13,c] 0
deploy[o121,s13,i] 157
deploy[o13,s6,m] 0
deploy[o13,s6,c] 0
deploy[o13,s6,i] 0
deploy[o13,s7,m] 0
deploy[o13,s7,c] 0
deploy[o13,s7,i] 0
deploy[o13,s8,m] 0
deploy[o13,s8,c] 0
deploy[o13,s8,i] 0
deploy[o13,s9,m] 0
deploy[o13,s9,c] 0
deploy[o13,s9,i] 0
deploy[o13,s10,m] 0
deploy[o13,s10,c] 0
deploy[o13,s10,i] 0
deploy[o13,s11,m] 0
deploy[o13,s11,c] 5
deploy[o13,s11,i] 0
deploy[o13,s12,m] 0
deploy[o13,s12,c] 0
deploy[o13,s12,i] 0
deploy[o128,s12,m] 0
deploy[o128,s12,c] 0
deploy[o128,s12,i] 0
deploy[o128,s13,m] 2
deploy[o128,s13,c] 0
deploy[o128,s13,i] 0
deploy[o128,s14,m] 0
deploy[o128,s14,c] 0
deploy[o128,s14,i] 0
deploy[o128,s15,m] 0
deploy[o128,s15,c] 0
deploy[o128,s15,i] 0
deploy[o128,s16,m] 0
deploy[o128,s16,c] 0
deploy[o128,s16,i] 0
deploy[o128,s17,m] 0
deploy[o128,s17,c] 0
deploy[o128,s17,i] 0
deploy[o90,s19,m] 0
deploy[o90,s19,c] 0
deploy[o90,s19,i] 37
deploy[o90,s20,m] 0
deploy[o90,s20,c] 0
deploy[o90,s20,i] 0
deploy[o79,s14,m] 0
deploy[o79,s14,c] 0
deploy[o79,s14,i] 0
deploy[o79,s15,m] 0
deploy[o79,s15,c] 0
deploy[o79,s15,i] 0
deploy[o79,s16,m] 0
deploy[o79,s16,c] 0
deploy[o79,s16,i] 0
deploy[o79,s17,m] 0
deploy[o79,s17,c] 0
deploy[o79,s17,i] 0
deploy[o79,s18,m] 0
deploy[o79,s18,c] 0
deploy[o79,s18,i] 0
deploy[o79,s19,m] 0
deploy[o79,s19,c] 0
deploy[o79,s19,i] 157
deploy[o161,s2,m] 20
deploy[o161,s2,c] 0
deploy[o161,s2,i] 0
deploy[o161,s3,m] 20
deploy[o161,s3,c] 0
deploy[o161,s3,i] 0
deploy[o161,s4,m] 0
deploy[o161,s4,c] 0
deploy[o161,s4,i] 0
deploy[o161,s5,m] 0
deploy[o161,s5,c] 0
deploy[o161,s5,i] 0
deploy[o163,s2,m] 0
deploy[o163,s2,c] 110
deploy[o163,s2,i] 0
deploy[o163,s3,m] 0
deploy[o163,s3,c] 110
deploy[o163,s3,i] 0
deploy[o163,s4,m] 0
deploy[o163,s4,c] 0
deploy[o163,s4,i] 0
deploy[o163,s5,m] 0
deploy[o163,s5,c] 0
deploy[o163,s5,i] 0
deploy[o130,s6,m] 0
deploy[o130,s6,c] 0
deploy[o130,s6,i] 0
deploy[o130,s7,m] 0
deploy[o130,s7,c] 0
deploy[o130,s7,i] 0
deploy[o130,s8,m] 0
deploy[o130,s8,c] 0
deploy[o130,s8,i] 0
deploy[o130,s9,m] 0
deploy[o130,s9,c] 0
deploy[o130,s9,i] 0
deploy[o130,s10,m] 0
deploy[o130,s10,c] 0
deploy[o130,s10,i] 0
deploy[o130,s11,m] 0
deploy[o130,s11,c] 5
deploy[o130,s11,i] 0
deploy[o130,s12,m] 0
deploy[o130,s12,c] 0
deploy[o130,s12,i] 0
deploy[o107,s12,m] 0
deploy[o107,s12,c] 0
deploy[o107,s12,i] 0
deploy[o107,s13,m] 0
deploy[o107,s13,c] 0
deploy[o107,s13,i] 37
deploy[o107,s14,m] 0
deploy[o107,s14,c] 0
deploy[o107,s14,i] 0
deploy[o107,s15,m] 0
deploy[o107,s15,c] 0
deploy[o107,s15,i] 0
deploy[o42,s2,m] 0
deploy[o42,s2,c] 0
deploy[o42,s2,i] 37
deploy[o19,s3,m] 0
deploy[o19,s3,c] 5
deploy[o19,s3,i] 0
deploy[o19,s6,m] 0
deploy[o19,s6,c] 0
deploy[o19,s6,i] 0
deploy[o19,s7,m] 0
deploy[o19,s7,c] 0
deploy[o19,s7,i] 0
deploy[o22,s1,m] 0
deploy[o22,s1,c] 110
deploy[o22,s1,i] 0
deploy[o187,s1,m] 0
deploy[o187,s1,c] 0
deploy[o187,s1,i] 7
deploy[o84,s15,m] 0
deploy[o84,s15,c] 0
deploy[o84,s15,i] 0
deploy[o84,s16,m] 0
deploy[o84,s16,c] 0
deploy[o84,s16,i] 0
deploy[o84,s17,m] 0
deploy[o84,s17,c] 0
deploy[o84,s17,i] 0
deploy[o84,s18,m] 0
deploy[o84,s18,c] 0
deploy[o84,s18,i] 0
deploy[o84,s19,m] 0
deploy[o84,s19,c] 31
deploy[o84,s19,i] 0
deploy[o84,s20,m] 0
deploy[o84,s20,c] 0
deploy[o84,s20,i] 0
deploy[o132,s6,m] 0
deploy[o132,s6,c] 0
deploy[o132,s6,i] 0
deploy[o132,s7,m] 0
deploy[o132,s7,c] 0
deploy[o132,s7,i] 0
deploy[o132,s8,m] 0
deploy[o132,s8,c] 0
deploy[o132,s8,i] 0
deploy[o132,s9,m] 0
deploy[o132,s9,c] 0
deploy[o132,s9,i] 0
deploy[o132,s10,m] 0
deploy[o132,s10,c] 0
deploy[o132,s10,i] 0
deploy[o132,s11,m] 0
deploy[o132,s11,c] 0
deploy[o132,s11,i] 0
deploy[o132,s12,m] 0
deploy[o132,s12,c] 0
deploy[o132,s12,i] 0
deploy[o198,s1,m] 2
deploy[o198,s1,c] 0
deploy[o198,s1,i] 0
deploy[o49,s13,m] 0
deploy[o49,s13,c] 0
deploy[o49,s13,i] 157
deploy[o49,s15,m] 0
deploy[o49,s15,c] 0
deploy[o49,s15,i] 0
deploy[o49,s16,m] 0
deploy[o49,s16,c] 0
deploy[o49,s16,i] 0
deploy[o49,s17,m] 0
deploy[o49,s17,c] 0
deploy[o49,s17,i] 0
deploy[o49,s18,m] 0
deploy[o49,s18,c] 0
deploy[o49,s18,i] 0
deploy[o116,s12,m] 0
deploy[o116,s12,c] 0
deploy[o116,s12,i] 0
deploy[o116,s13,m] 0
deploy[o116,s13,c] 0
deploy[o116,s13,i] 37
deploy[o124,s9,m] 0
deploy[o124,s9,c] 0
deploy[o124,s9,i] 0
deploy[o124,s12,m] 0
deploy[o124,s12,c] 0
deploy[o124,s12,i] 0
deploy[o124,s13,m] 0
deploy[o124,s13,c] 110
deploy[o124,s13,i] 0
deploy[o134,s6,m] 0
deploy[o134,s6,c] 0
deploy[o134,s6,i] 0
deploy[o134,s7,m] 0
deploy[o134,s7,c] 0
deploy[o134,s7,i] 0
deploy[o134,s8,m] 0
deploy[o134,s8,c] 0
deploy[o134,s8,i] 0
deploy[o134,s9,m] 0
deploy[o134,s9,c] 0
deploy[o134,s9,i] 0
deploy[o134,s10,m] 0
deploy[o134,s10,c] 0
deploy[o134,s10,i] 0
deploy[o134,s11,m] 0
deploy[o134,s11,c] 110
deploy[o134,s11,i] 0
deploy[o134,s12,m] 0
deploy[o134,s12,c] 0
deploy[o134,s12,i] 0
deploy[o82,s16,m] 0
deploy[o82,s16,c] 0
deploy[o82,s16,i] 0
deploy[o82,s17,m] 0
deploy[o82,s17,c] 0
deploy[o82,s17,i] 0
deploy[o82,s18,m] 0
deploy[o82,s18,c] 0
deploy[o82,s18,i] 0
deploy[o82,s19,m] 0
deploy[o82,s19,c] 0
deploy[o82,s19,i] 37
deploy[o82,s20,m] 0
deploy[o82,s20,c] 0
deploy[o82,s20,i] 0
deploy[o220,s1,m] 20
deploy[o220,s1,c] 0
deploy[o220,s1,i] 0
deploy[o207,s3,m] 2
deploy[o207,s3,c] 0
deploy[o207,s3,i] 0
deploy[o207,s4,m] 0
deploy[o207,s4,c] 0
deploy[o207,s4,i] 0
deploy[o207,s5,m] 0
deploy[o207,s5,c] 0
deploy[o207,s5,i] 0
deploy[o43,s2,m] 100
deploy[o43,s2,c] 0
deploy[o43,s2,i] 0
deploy[o43,s3,m] 100
deploy[o43,s3,c] 0
deploy[o43,s3,i] 0
deploy[o192,s1,m] 0
deploy[o192,s1,c] 0
deploy[o192,s1,i] 7
deploy[o174,s2,m] 0
deploy[o174,s2,c] 0
deploy[o174,s2,i] 157
deploy[o174,s3,m] 0
deploy[o174,s3,c] 0
deploy[o174,s3,i] 157
deploy[o78,s14,m] 0
deploy[o78,s14,c] 0
deploy[o78,s14,i] 0
deploy[o78,s15,m] 0
deploy[o78,s15,c] 0
deploy[o78,s15,i] 0
deploy[o78,s16,m] 0
deploy[o78,s16,c] 0
deploy[o78,s16,i] 0
deploy[o78,s17,m] 0
deploy[o78,s17,c] 0
deploy[o78,s17,i] 0
deploy[o78,s19,m] 0
deploy[o78,s19,c] 31
deploy[o78,s19,i] 0
